benchmarks_vrp/CMT1/fixed_c_size/CMT1_0.vrp
NAME: CMT1_0
TYPE: CVRP
COMMENT: 524.61 - Cluster Nr.0
DIMENSION: 14
CAPACITY: 160
EDGE_WEIGHT_TYPE: EUC_2D
NODE_COORD_TYPE: TWOD_COORDS
NODE_COORD_SECTION: 
7 8 52
3 31 62
6 32 39
5 37 52
10 16 57
13 21 47
1 30 40
14 12 42
11 5 64
2 37 69
8 25 55
4 27 68
9 17 63
12 30 48
DEPOT_SECTION: 
1
-1
DEMAND_SECTION: 
5 7
11 11
2 11
3 23
10 16
9 19
7 10
14 21
4 7
8 17
1 0
6 5
12 15
13 15
EOF
