benchmarks_vrp/CMT1/fixed_c_size/CMT1_0.tour
NAME: CMT1_0 solution
TYPE: TOUR
TOUR_SECTION:
1 5 2 4 3 8 10 9 11 7 14 13 -1
1 6 12 -1
-1
EOF